CMPL model generation - running

CMPL version: 1.11.0
Authors: Thomas Schleiff, Mike Steglich
Distributed under the GPLv3 

create model instance ...
write model instance ...
CMPL model generation - finished

Solver - running


Welcome to IBM(R) ILOG(R) CPLEX(R) Interactive Optimizer 12.7.1.0
  with Simplex, Mixed Integer & Barrier Optimizers
5725-A06 5725-A29 5724-Y48 5724-Y49 5724-Y54 5724-Y55 5655-Y21
Copyright IBM Corp. 1988, 2017.  All Rights Reserved.

Type 'help' for a list of available commands.
Type 'help' followed by a command name for more
information on commands.

CPLEX> Specified objective sense: MINIMIZE
Selected objective  name:  line[1]
Selected RHS        name:  RHS
Selected bound      name:  BOUND
Problem '/tmp/cmpl.T24964.mps' read.
Read time = 0.10 sec. (10.22 ticks)
CPLEX> CPXPARAM_Read_APIEncoding                        "UTF-8"
Tried aggregator 3 times.
MIP Presolve eliminated 22964 rows and 35510 columns.
MIP Presolve modified 637 coefficients.
Aggregator did 1768 substitutions.
Reduced MIP has 3190 rows, 5177 columns, and 15349 nonzeros.
Reduced MIP has 4967 binaries, 0 generals, 0 SOSs, and 0 indicators.
Presolve time = 0.13 sec. (55.93 ticks)
Found incumbent of value 4709.742974 after 0.27 sec. (113.61 ticks)
Probing time = 0.02 sec. (2.76 ticks)
Tried aggregator 2 times.
MIP Presolve eliminated 3 rows and 66 columns.
MIP Presolve modified 10 coefficients.
Aggregator did 2 substitutions.
Reduced MIP has 3185 rows, 5109 columns, and 15207 nonzeros.
Reduced MIP has 5109 binaries, 0 generals, 0 SOSs, and 0 indicators.
Presolve time = 0.03 sec. (18.30 ticks)
Probing time = 0.01 sec. (2.97 ticks)
Clique table members: 4445.
MIP emphasis: balance optimality and feasibility.
MIP search method: dynamic search.
Parallel mode: none, using 1 thread.
Root relaxation solution time = 0.04 sec. (19.96 ticks)

        Nodes                                         Cuts/
   Node  Left     Objective  IInf  Best Integer    Best Bound    ItCnt     Gap

*     0+    0                         4709.7430        0.0000           100.00%
*     0     0      integral     0     2193.8596     2193.8596     1214    0.00%
Elapsed time = 0.42 sec. (168.05 ticks, tree = 0.00 MB, solutions = 2)

Root node processing (before b&c):
  Real time             =    0.42 sec. (169.62 ticks)
Sequential b&c:
  Real time             =    0.00 sec. (0.00 ticks)
                          ------------
Total (root+branch&cut) =    0.42 sec. (169.62 ticks)

Solution pool: 2 solutions saved.

MIP - Integer optimal solution:  Objective =  2.1938595800e+03
Solution time =    0.42 sec.  Iterations = 1214  Nodes = 0
Deterministic time = 169.74 ticks  (404.48 ticks/sec)

CPLEX> Incumbent solution written to file '/tmp/cmpl.T24964.gsol'.
CPLEX> 
CMPL: Time used for model generation: 1 seconds
CMPL: Time used for solving the model: 2 seconds


Solution written to ASCII file: results/output_generated_conf_1/2017-05-01-5/fair-nonlinear.sol

Solver - finished
